c Reduced graph for p27 generated by Cyril Grelier
p edge 44 174
e 1 2
e 1 3
e 1 4
e 1 5
e 1 12
e 1 20
e 1 29
e 1 34
e 2 3
e 2 4
e 2 5
e 2 7
e 2 30
e 2 41
e 3 4
e 3 5
e 3 21
e 3 26
e 3 31
e 3 35
e 4 5
e 4 17
e 4 22
e 4 37
e 5 14
e 5 24
e 5 33
e 5 39
e 6 7
e 6 8
e 6 9
e 6 10
e 6 11
e 6 15
e 6 25
e 6 40
e 7 8
e 7 9
e 7 10
e 7 30
e 7 41
e 8 9
e 8 10
e 8 16
e 8 27
e 8 36
e 8 42
e 9 10
e 9 13
e 9 18
e 9 38
e 9 43
e 10 19
e 10 23
e 10 28
e 10 32
e 10 44
e 11 12
e 11 13
e 11 14
e 11 15
e 11 25
e 11 40
e 12 13
e 12 14
e 12 20
e 12 29
e 12 34
e 13 14
e 13 18
e 13 38
e 13 43
e 14 24
e 14 33
e 14 39
e 15 16
e 15 17
e 15 18
e 15 19
e 15 25
e 15 40
e 16 17
e 16 18
e 16 19
e 16 27
e 16 36
e 16 42
e 17 18
e 17 19
e 17 22
e 17 37
e 18 19
e 18 38
e 18 43
e 19 23
e 19 28
e 19 32
e 19 44
e 20 21
e 20 22
e 20 23
e 20 24
e 20 29
e 20 34
e 21 22
e 21 23
e 21 24
e 21 26
e 21 31
e 21 35
e 22 23
e 22 24
e 22 37
e 23 24
e 23 28
e 23 32
e 23 44
e 24 33
e 24 39
e 25 26
e 25 27
e 25 28
e 25 40
e 26 27
e 26 28
e 26 31
e 26 35
e 27 28
e 27 36
e 27 42
e 28 32
e 28 44
e 29 30
e 29 31
e 29 32
e 29 33
e 29 34
e 30 31
e 30 32
e 30 33
e 30 41
e 31 32
e 31 33
e 31 35
e 32 33
e 32 44
e 33 39
e 34 35
e 34 36
e 34 37
e 34 38
e 34 39
e 35 36
e 35 37
e 35 38
e 35 39
e 36 37
e 36 38
e 36 39
e 36 42
e 37 38
e 37 39
e 38 39
e 38 43
e 40 41
e 40 42
e 40 43
e 40 44
e 41 42
e 41 43
e 41 44
e 42 43
e 42 44
e 43 44
